[2026-03-23T13:48:25.176Z] Pipeline "set_exp_2_exp_2_n032_c004_g001" → 2026_03_23_13_48_25_set_exp_2_exp_2_n032_c004_g001_max.sol
Set parameter WLSAccessID
Set parameter WLSSecret
Set parameter LicenseID to value 2792458
Set parameter LogFile to value "gurobi.log"
Using license file /root/gurobi.lic
Academic license 2792458 - for non-commercial use only - registered to an___@studenti.unipg.it

Gurobi Optimizer version 13.0.1 build v13.0.1rc0 (linux64 - "Ubuntu 24.04.4 LTS")
Copyright (c) 2026, Gurobi Optimization, LLC

Warning: Duplicate section found (read 'binary') - Is a variable name equal to an LP file format keyword?
Warning: Duplicate section found (read 'binary') - Is a variable name equal to an LP file format keyword?
Warning: Duplicate section found (read 'binary') - Is a variable name equal to an LP file format keyword?
Warning: Duplicate section found (read 'binary') - Is a variable name equal to an LP file format keyword?
Warning: Duplicate section found (read 'binary') - Is a variable name equal to an LP file format keyword?
Warning: Duplicate section found (read 'binary') - Is a variable name equal to an LP file format keyword?
Warning: Duplicate section found (read 'binary') - Is a variable name equal to an LP file format keyword?
Warning: Duplicate section found (read 'binary') - Is a variable name equal to an LP file format keyword?
Warning: Duplicate section found (read 'binary') - Is a variable name equal to an LP file format keyword?
Warning: Duplicate section found (read 'binary') - Is a variable name equal to an LP file format keyword?
Warning: Further warnings of this type will be omitted.
Read LP format model from file /root/bgw/data/uploads/2026_03_23_13_48_25_set_exp_2_exp_2_n032_c004_g001_max.lp
Reading time = 0.01 seconds
: 11888 rows, 840 columns, 34686 nonzeros

Using Gurobi shared library /opt/gurobi1301/linux64/lib/libgurobi.so.13.0.1

CPU model: AMD EPYC-Genoa Processor, instruction set [SSE2|AVX|AVX2|AVX512]
Thread count: 16 physical cores, 16 logical processors, using up to 16 threads

Academic license 2792458 - for non-commercial use only - registered to an___@studenti.unipg.it
Optimize a model with 11888 rows, 840 columns and 34686 nonzeros (Max)
Model fingerprint: 0x2d65543c
Model has 12 linear objective coefficients
Variable types: 44 continuous, 796 integer (796 binary)
Coefficient statistics:
  Matrix range     [1e+00, 3e+01]
  Objective range  [1e+00, 1e+00]
  Bounds range     [1e+00, 1e+00]
  RHS range        [1e+00, 3e+01]

Found heuristic solution: objective 12.0000000
Presolve removed 1930 rows and 321 columns
Presolve time: 0.04s
Presolved: 9958 rows, 519 columns, 30106 nonzeros
Variable types: 0 continuous, 519 integer (511 binary)
Found heuristic solution: objective 15.0000000

Root relaxation: objective 5.400000e+01, 371 iterations, 0.03 seconds (0.04 work units)

    Nodes    |    Current Node    |     Objective Bounds      |     Work
 Expl Unexpl |  Obj  Depth IntInf | Incumbent    BestBd   Gap | It/Node Time

     0     0   54.00000    0   34   15.00000   54.00000   260%     -    0s
H    0     0                      25.0000000   54.00000   116%     -    0s
H    0     0                      26.0000000   54.00000   108%     -    0s
H    0     0                      27.0000000   54.00000   100%     -    0s
H    0     0                      28.0000000   54.00000  92.9%     -    0s
H    0     0                      29.0000000   54.00000  86.2%     -    0s
H    0     0                      32.0000000   54.00000  68.8%     -    0s
H    0     0                      33.0000000   54.00000  63.6%     -    0s
     0     0   54.00000    0   33   33.00000   54.00000  63.6%     -    0s
     0     0   54.00000    0   41   33.00000   54.00000  63.6%     -    0s
     0     0   54.00000    0   31   33.00000   54.00000  63.6%     -    0s
     0     0   54.00000    0   39   33.00000   54.00000  63.6%     -    0s
     0     0   54.00000    0   33   33.00000   54.00000  63.6%     -    0s
     0     0   54.00000    0   33   33.00000   54.00000  63.6%     -    0s
     0     0   54.00000    0   32   33.00000   54.00000  63.6%     -    0s
     0     0   54.00000    0   33   33.00000   54.00000  63.6%     -    0s
     0     0   54.00000    0   32   33.00000   54.00000  63.6%     -    0s
     0     0   54.00000    0   32   33.00000   54.00000  63.6%     -    0s
     0     0   54.00000    0   32   33.00000   54.00000  63.6%     -    0s
     0     0   54.00000    0   32   33.00000   54.00000  63.6%     -    0s
     0     0   54.00000    0   32   33.00000   54.00000  63.6%     -    0s
     0     2   54.00000    0   32   33.00000   54.00000  63.6%     -    0s
  2081   594 infeasible   13        33.00000   51.50000  56.1%   126    5s
  4919  1098   34.94667   18   80   33.00000   45.96667  39.3%   176   10s
  8093  1142   36.35714   13   17   33.00000   42.86667  29.9%   199   15s
 11032   937     cutoff   15        33.00000   40.55000  22.9%   218   20s

Cutting planes:
  Cover: 133
  MIR: 1
  StrongCG: 1
  Inf proof: 111
  Zero half: 1

Explored 14765 nodes (3396066 simplex iterations) in 24.89 seconds (52.22 work units)
Thread count was 16 (of 16 available processors)

Solution count 9: 33 32 29 ... 12

Optimal solution found (tolerance 1.00e-04)
Best objective 3.300000000000e+01, best bound 3.300000000000e+01, gap 0.0000%

Wrote result file '/root/bgw/data/results/2026_03_23_13_48_25_set_exp_2_exp_2_n032_c004_g001_max.sol'

